webassembly/ejemplos_dzn/folder4_json_87.dzn
TERM = { '.', 'local_1', 'in_0', 'in_1', 's(1)'};
null = '.';
s = 4;
n = 7;
ndeps = 0;
max_registers_sz = 4;
NR = 1;
registers = [|'local_1', 's(1)'|];
dependencies = [| |];
GET_ENUM = { GET1, GET2, GET3, GET4, GET5};
SET_ENUM = { SET1, SET2, SET3, SET4, SET5};
TEE_ENUM = { TEE1, TEE2, TEE3, TEE4, TEE5};
N = 1;
OP = { 'i32.const_0' };
in_ops = [0 ];
out_ops = [1 ];
in1 = ['.' ];
in2 = ['.' ];
in3 = ['.' ];
out1 = ['s(1)' ];
out2 = ['.' ];
out3 = ['.' ];
comm = [false ];
gas = [1 ];
sz = [1 ];
stor = [false ];
lb = [ 1 ];
ub = [ 4 ];
startstack = [ 'in_0', 'in_1', null, null, null, null, null ];
endstack = [ null, null, null, null, null, null, null ];
