webassembly/ejemplos_results/4/folder4_json_87.txt
value = 4;
fgas = [1, 1, 2, 1];
fsize = [1, 1, 1, 1];
states = 
[|   in_0, in_1,  '.', '.', '.', '.', '.'
 | 's(1)', in_0, in_1, '.', '.', '.', '.'
 |   in_0, in_1,  '.', '.', '.', '.', '.'
 |   in_1,  '.',  '.', '.', '.', '.', '.'
 |    '.',  '.',  '.', '.', '.', '.', '.'
 |];
register_states = 
[| local_1, '.', '.', '.', '.'
 | local_1, '.', '.', '.', '.'
 |  's(1)', '.', '.', '.', '.'
 |  's(1)', '.', '.', '.', '.'
 |  's(1)', '.', '.', '.', '.'
 |];
program = [O('i32.const_0'), S(SET1), POP, G(GET5)];
% time elapsed: 0.04 s
----------
==========
% time elapsed: 0.04 s
% [value > 3]
